0 1
2 3
8 9
9 10
10 11
11 12
13 14
13 20
7 8
7 12
16 17
17 18
13 26
14 15
14 19
15 16
3 4
4 5
5 6
20 25
21 22
22 23
18 19
0 7
20 21
23 24
24 25
26 27
26 33
27 28
27 32
28 29
29 30
30 31
31 32
0 13
0 26
1 2
1 6
33 34
33 38
34 35
35 36
36 37
37 38
